(set-info :smt-lib-version 2.6)
(set-info :category "crafted")
(set-logic QF_FF)
(define-sort FF0 () (_ FiniteField 52435875175126190479447740508185965837690552500527637822603658699938581184513))
(declare-fun a () Bool)
(declare-fun f () Bool)
(declare-fun e () Bool)
(declare-fun d () Bool)
(declare-fun g () Bool)
(declare-fun c () Bool)
(declare-fun b () Bool)
(declare-fun h () Bool)
(declare-fun out () FF0)
(declare-fun _55 () FF0)
(declare-fun _27 () FF0)
(declare-fun _54 () FF0)
(declare-fun _20 () FF0)
(declare-fun _53 () FF0)
(declare-fun _7 () FF0)
(declare-fun _52 () FF0)
(declare-fun _33 () FF0)
(declare-fun _32 () FF0)
(declare-fun _51 () FF0)
(declare-fun _15 () FF0)
(declare-fun _50 () FF0)
(declare-fun _45 () FF0)
(declare-fun _49 () FF0)
(declare-fun _48 () FF0)
(declare-fun _1 () FF0)
(declare-fun _47 () FF0)
(declare-fun _46 () FF0)
(declare-fun _36 () FF0)
(declare-fun _4 () FF0)
(declare-fun _0 () FF0)
(declare-fun _8 () FF0)
(declare-fun _44 () FF0)
(declare-fun _41 () FF0)
(declare-fun _40 () FF0)
(declare-fun _43 () FF0)
(declare-fun _3 () FF0)
(declare-fun _6 () FF0)
(declare-fun _35 () FF0)
(declare-fun _10 () FF0)
(declare-fun _16 () FF0)
(declare-fun _26 () FF0)
(declare-fun _25 () FF0)
(declare-fun _24 () FF0)
(declare-fun _23 () FF0)
(declare-fun _21 () FF0)
(declare-fun _22 () FF0)
(declare-fun _19 () FF0)
(declare-fun _18 () FF0)
(declare-fun _5 () FF0)
(declare-fun _14 () FF0)
(declare-fun _13 () FF0)
(declare-fun _12 () FF0)
(declare-fun _2 () FF0)
(assert 
  (let ((let0 a))
  (let ((let1 f))
  (let ((let2 (= let1 let0)))
  (let ((let3 e))
  (let ((let4 d))
  (let ((let5 (= let4 let3)))
  (let ((let6 g))
  (let ((let7 c))
  (let ((let8 b))
  (let ((let9 (and let8 let7 let3 let6 let5)))
  (let ((let10 (= let9 let0)))
  (let ((let11 (or let4 let10 let1 let2)))
  (let ((let12 (and let8 let2)))
  (let ((let13 (or let10 let9 let12 let12 let5 let11 let11)))
  (let ((let14 h))
  (let ((let15 (not let14)))
  (let ((let16 (ite let14 let10 let5)))
  (let ((let17 (or let6 let15 let15)))
  (let ((let18 (ite let6 let14 let17)))
  (let ((let19 (and let13 let4 let18 let2)))
  (let ((let20 (=> let3 let0)))
  (let ((let21 (or let17 let20)))
  (let ((let22 (and let21 let8 let19 let19 let9 let16 let15 let11 let13)))
  (let ((let23 out))
  (let ((let24 (as ff1 FF0)))
  (let ((let25 (= let24 let23)))
  (let ((let26 (= let25 let22)))
  (let ((let27 (as ff0 FF0)))
  (let ((let28 (= let27 let23)))
  (let ((let29 (or let25 let28)))
  (let ((let30 (and let29 let26)))
  (let ((let31 _55))
  (let ((let32 (= let31 let23)))
  (let ((let33 _27))
  (let ((let34 _54))
  (let ((let35 (ff.mul let34 let33)))
  (let ((let36 (= let35 let31)))
  (let ((let37 _20))
  (let ((let38 _53))
  (let ((let39 (ff.mul let38 let37)))
  (let ((let40 (= let39 let34)))
  (let ((let41 (as ff52435875175126190479447740508185965837690552500527637822603658699938581184512 FF0)))
  (let ((let42 _7))
  (let ((let43 (ff.mul let42 let41)))
  (let ((let44 (ff.add let43 let24)))
  (let ((let45 _52))
  (let ((let46 (ff.mul let45 let44)))
  (let ((let47 (= let46 let38)))
  (let ((let48 _33))
  (let ((let49 _32))
  (let ((let50 (ff.add let49 let48)))
  (let ((let51 _51))
  (let ((let52 (ff.mul let51 let50)))
  (let ((let53 (= let52 let45)))
  (let ((let54 _15))
  (let ((let55 _50))
  (let ((let56 (ff.mul let55 let54)))
  (let ((let57 (= let56 let51)))
  (let ((let58 _45))
  (let ((let59 _49))
  (let ((let60 (ff.mul let59 let58)))
  (let ((let61 (= let60 let55)))
  (let ((let62 _48))
  (let ((let63 (ff.mul let62 let58)))
  (let ((let64 (= let63 let59)))
  (let ((let65 _1))
  (let ((let66 _47))
  (let ((let67 (ff.mul let66 let65)))
  (let ((let68 (= let67 let62)))
  (let ((let69 (ff.mul let66 let41)))
  (let ((let70 _46))
  (let ((let71 _36))
  (let ((let72 (ff.add let71 let70 let69)))
  (let ((let73 (ff.mul let71 let70)))
  (let ((let74 (= let73 let72)))
  (let ((let75 (ff.mul let70 let41)))
  (let ((let76 _4))
  (let ((let77 (ff.mul let76 let41)))
  (let ((let78 _0))
  (let ((let79 (ff.add let78 let77 let75 let24)))
  (let ((let80 (ff.add let77 let24)))
  (let ((let81 (ff.mul let80 let78)))
  (let ((let82 (= let81 let79)))
  (let ((let83 _8))
  (let ((let84 (ff.mul let83 let41)))
  (let ((let85 (ff.add let84 let24)))
  (let ((let86 _44))
  (let ((let87 (ff.mul let86 let85)))
  (let ((let88 (= let87 let58)))
  (let ((let89 _41))
  (let ((let90 _40))
  (let ((let91 (ff.add let90 let89)))
  (let ((let92 _43))
  (let ((let93 (ff.mul let92 let91)))
  (let ((let94 (= let93 let86)))
  (let ((let95 _3))
  (let ((let96 (ff.mul let33 let95)))
  (let ((let97 (= let96 let92)))
  (let ((let98 _6))
  (let ((let99 (ff.mul let98 let42)))
  (let ((let100 (= let99 let90)))
  (let ((let101 (ff.mul let71 let41)))
  (let ((let102 _35))
  (let ((let103 (ff.add let43 let102 let101 let24)))
  (let ((let104 (ff.mul let102 let44)))
  (let ((let105 (= let104 let103)))
  (let ((let106 (ff.mul let102 let41)))
  (let ((let107 (ff.add let98 let43 let106 let24)))
  (let ((let108 (ff.mul let98 let44)))
  (let ((let109 (= let108 let107)))
  (let ((let110 _10))
  (let ((let111 (ff.mul let110 let41)))
  (let ((let112 (ff.add let111 let24)))
  (let ((let113 (ff.mul let44 let112)))
  (let ((let114 (= let113 let48)))
  (let ((let115 _16))
  (let ((let116 (ff.mul let115 let41)))
  (let ((let117 (ff.add let116 let24)))
  (let ((let118 (ff.mul let42 let117)))
  (let ((let119 (= let118 let49)))
  (let ((let120 (ff.mul let33 let41)))
  (let ((let121 _26))
  (let ((let122 (ff.add let37 let121 let120)))
  (let ((let123 (ff.mul let121 let37)))
  (let ((let124 (= let123 let122)))
  (let ((let125 (ff.mul let121 let41)))
  (let ((let126 _25))
  (let ((let127 (ff.add let37 let126 let125)))
  (let ((let128 (ff.mul let126 let37)))
  (let ((let129 (= let128 let127)))
  (let ((let130 (ff.mul let126 let41)))
  (let ((let131 _24))
  (let ((let132 (ff.add let111 let131 let130 let24)))
  (let ((let133 (ff.mul let131 let112)))
  (let ((let134 (= let133 let132)))
  (let ((let135 (ff.mul let131 let41)))
  (let ((let136 _23))
  (let ((let137 _21))
  (let ((let138 (ff.add let137 let136 let135)))
  (let ((let139 (ff.mul let136 let137)))
  (let ((let140 (= let139 let138)))
  (let ((let141 (ff.mul let136 let41)))
  (let ((let142 _22))
  (let ((let143 (ff.add let137 let142 let141)))
  (let ((let144 (ff.mul let142 let137)))
  (let ((let145 (= let144 let143)))
  (let ((let146 (ff.mul let142 let41)))
  (let ((let147 (ff.add let54 let116 let146 let24)))
  (let ((let148 (ff.mul let117 let54)))
  (let ((let149 (= let148 let147)))
  (let ((let150 (ff.mul let65 let85)))
  (let ((let151 (= let150 let137)))
  (let ((let152 (ff.mul let37 let41)))
  (let ((let153 _19))
  (let ((let154 (ff.add let84 let153 let152 let24)))
  (let ((let155 (ff.mul let153 let85)))
  (let ((let156 (= let155 let154)))
  (let ((let157 (ff.mul let153 let41)))
  (let ((let158 _18))
  (let ((let159 _5))
  (let ((let160 (ff.add let159 let158 let157)))
  (let ((let161 (ff.mul let158 let159)))
  (let ((let162 (= let161 let160)))
  (let ((let163 (ff.mul let158 let41)))
  (let ((let164 (ff.add let95 let116 let163 let24)))
  (let ((let165 (ff.mul let95 let117)))
  (let ((let166 (= let165 let164)))
  (let ((let167 (ff.mul let78 let41)))
  (let ((let168 (ff.add let167 let54)))
  (let ((let169 (ff.mul let168 let168)))
  (let ((let170 (= let169 let115)))
  (let ((let171 _14))
  (let ((let172 (ff.mul let171 let112)))
  (let ((let173 (= let172 let54)))
  (let ((let174 _13))
  (let ((let175 (ff.mul let174 let98)))
  (let ((let176 (= let175 let171)))
  (let ((let177 _12))
  (let ((let178 (ff.mul let177 let76)))
  (let ((let179 (= let178 let174)))
  (let ((let180 _2))
  (let ((let181 (ff.mul let65 let180)))
  (let ((let182 (= let181 let177)))
  (let ((let183 (ff.add let95 let77)))
  (let ((let184 (ff.mul let183 let183)))
  (let ((let185 (= let184 let110)))
  (let ((let186 (ff.add let167 let159)))
  (let ((let187 (ff.mul let186 let186)))
  (let ((let188 (= let187 let83)))
  (let ((let189 (ff.mul let42 let42)))
  (let ((let190 (= let189 let42)))
  (let ((let191 (ff.mul let98 let98)))
  (let ((let192 (= let191 let98)))
  (let ((let193 (ff.mul let159 let159)))
  (let ((let194 (= let193 let159)))
  (let ((let195 (ff.mul let76 let76)))
  (let ((let196 (= let195 let76)))
  (let ((let197 (ff.mul let95 let95)))
  (let ((let198 (= let197 let95)))
  (let ((let199 (ff.mul let180 let180)))
  (let ((let200 (= let199 let180)))
  (let ((let201 (ff.mul let65 let65)))
  (let ((let202 (= let201 let65)))
  (let ((let203 (ff.mul let78 let78)))
  (let ((let204 (= let203 let78)))
  (let ((let205 (and let204 let202 let200 let198 let196 let194 let192 let190 let188 let185 let182 let179 let176 let173 let170 let166 let162 let156 let151 let149 let145 let140 let134 let129 let124 let119 let114 let109 let105 let100 let97 let94 let88 let82 let74 let68 let64 let61 let57 let53 let47 let40 let36 let32)))
  (let ((let206 (ite let7 let24 let27)))
  (let ((let207 (= let180 let206)))
  (let ((let208 (ite let4 let24 let27)))
  (let ((let209 (= let95 let208)))
  (let ((let210 (ite let6 let24 let27)))
  (let ((let211 (= let98 let210)))
  (let ((let212 (ite let8 let24 let27)))
  (let ((let213 (= let65 let212)))
  (let ((let214 (ite let14 let24 let27)))
  (let ((let215 (= let42 let214)))
  (let ((let216 (ite let1 let24 let27)))
  (let ((let217 (= let159 let216)))
  (let ((let218 (ite let3 let24 let27)))
  (let ((let219 (= let76 let218)))
  (let ((let220 (ite let0 let24 let27)))
  (let ((let221 (= let78 let220)))
  (let ((let222 (and let221 let219 let217 let215 let213 let211 let209 let207)))
  (let ((let223 (and let222 let205)))
  (let ((let224 (=> let223 let30)))
  (let ((let225 (not let224)))
  let225
))))))))))))))))))))))))))))))))))))))))))))))))))))))))))))))))))))))))))))))))))))))))))))))))))))))))))))))))))))))))))))))))))))))))))))))))))))))))))))))))))))))))))))))))))))))))))))))))))))))))))))))))))))))))))))))))))
)
(check-sat)
